p cnf 386 460
-15 -13 17 21 22 0
-15 -13 17 21 -22 0
-15 -13 17 -21 23 0
-15 -13 17 -21 -23 0
-19 -4 -16 24 25 0
-19 -4 -16 24 -25 0
-19 -4 -16 -24 26 0
-19 -4 -16 -24 -26 0
-8 -18 -5 27 28 0
-8 -18 -5 27 -28 0
-8 -18 -5 -27 29 0
-8 -18 -5 -27 -29 0
-10 -15 -18 30 31 0
-10 -15 -18 30 -31 0
-10 -15 -18 -30 32 0
-10 -15 -18 -30 -32 0
-13 20 5 33 34 0
-13 20 5 33 -34 0
-13 20 5 -33 35 0
-13 20 5 -33 -35 0
-19 -3 -16 36 37 0
-19 -3 -16 36 -37 0
-19 -3 -16 -36 38 0
-19 -3 -16 -36 -38 0
16 -19 -14 39 40 0
16 -19 -14 39 -40 0
16 -19 -14 -39 41 0
16 -19 -14 -39 -41 0
17 12 -7 42 43 0
17 12 -7 42 -43 0
17 12 -7 -42 44 0
17 12 -7 -42 -44 0
-1 -6 12 45 46 0
-1 -6 12 45 -46 0
-1 -6 12 -45 47 0
-1 -6 12 -45 -47 0
-12 -5 -20 48 49 0
-12 -5 -20 48 -49 0
-12 -5 -20 -48 50 0
-12 -5 -20 -48 -50 0
-3 10 -15 51 52 0
-3 10 -15 51 -52 0
-3 10 -15 -51 53 0
-3 10 -15 -51 -53 0
15 -3 -6 54 55 0
15 -3 -6 54 -55 0
15 -3 -6 -54 56 0
15 -3 -6 -54 -56 0
20 -8 14 57 58 0
20 -8 14 57 -58 0
20 -8 14 -57 59 0
20 -8 14 -57 -59 0
-2 14 7 60 61 0
-2 14 7 60 -61 0
-2 14 7 -60 62 0
-2 14 7 -60 -62 0
-18 -19 11 63 64 0
-18 -19 11 63 -64 0
-18 -19 11 -63 65 0
-18 -19 11 -63 -65 0
-16 -20 -11 66 67 0
-16 -20 -11 66 -67 0
-16 -20 -11 -66 68 0
-16 -20 -11 -66 -68 0
3 -14 -17 69 70 0
3 -14 -17 69 -70 0
3 -14 -17 -69 71 0
3 -14 -17 -69 -71 0
-6 16 -1 72 73 0
-6 16 -1 72 -73 0
-6 16 -1 -72 74 0
-6 16 -1 -72 -74 0
1 -2 -8 75 76 0
1 -2 -8 75 -76 0
1 -2 -8 -75 77 0
1 -2 -8 -75 -77 0
14 12 4 78 79 0
14 12 4 78 -79 0
14 12 4 -78 80 0
14 12 4 -78 -80 0
-5 9 15 81 82 0
-5 9 15 81 -82 0
-5 9 15 -81 83 0
-5 9 15 -81 -83 0
18 -2 -5 84 85 0
18 -2 -5 84 -85 0
18 -2 -5 -84 86 0
18 -2 -5 -84 -86 0
-12 -13 -18 87 88 0
-12 -13 -18 87 -88 0
-12 -13 -18 -87 89 0
-12 -13 -18 -87 -89 0
-12 15 -19 90 91 0
-12 15 -19 90 -91 0
-12 15 -19 -90 92 0
-12 15 -19 -90 -92 0
-12 20 -3 93 94 0
-12 20 -3 93 -94 0
-12 20 -3 -93 95 0
-12 20 -3 -93 -95 0
-20 14 1 96 97 0
-20 14 1 96 -97 0
-20 14 1 -96 98 0
-20 14 1 -96 -98 0
2 -6 10 99 100 0
2 -6 10 99 -100 0
2 -6 10 -99 101 0
2 -6 10 -99 -101 0
5 -3 -19 102 103 0
5 -3 -19 102 -103 0
5 -3 -19 -102 104 0
5 -3 -19 -102 -104 0
-14 5 -6 105 106 0
-14 5 -6 105 -106 0
-14 5 -6 -105 107 0
-14 5 -6 -105 -107 0
4 15 14 108 109 0
4 15 14 108 -109 0
4 15 14 -108 110 0
4 15 14 -108 -110 0
-18 8 15 111 112 0
-18 8 15 111 -112 0
-18 8 15 -111 113 0
-18 8 15 -111 -113 0
-7 -4 -8 114 115 0
-7 -4 -8 114 -115 0
-7 -4 -8 -114 116 0
-7 -4 -8 -114 -116 0
2 -15 -1 117 118 0
2 -15 -1 117 -118 0
2 -15 -1 -117 119 0
2 -15 -1 -117 -119 0
-12 11 18 120 121 0
-12 11 18 120 -121 0
-12 11 18 -120 122 0
-12 11 18 -120 -122 0
10 -5 15 123 124 0
10 -5 15 123 -124 0
10 -5 15 -123 125 0
10 -5 15 -123 -125 0
-5 8 -12 126 127 0
-5 8 -12 126 -127 0
-5 8 -12 -126 128 0
-5 8 -12 -126 -128 0
2 12 17 129 130 0
2 12 17 129 -130 0
2 12 17 -129 131 0
2 12 17 -129 -131 0
8 9 -2 132 133 0
8 9 -2 132 -133 0
8 9 -2 -132 134 0
8 9 -2 -132 -134 0
-2 -1 9 135 136 0
-2 -1 9 135 -136 0
-2 -1 9 -135 137 0
-2 -1 9 -135 -137 0
-1 7 15 138 139 0
-1 7 15 138 -139 0
-1 7 15 -138 140 0
-1 7 15 -138 -140 0
-19 -15 -14 141 142 0
-19 -15 -14 141 -142 0
-19 -15 -14 -141 143 0
-19 -15 -14 -141 -143 0
-4 16 -11 144 145 0
-4 16 -11 144 -145 0
-4 16 -11 -144 146 0
-4 16 -11 -144 -146 0
7 -13 9 147 148 0
7 -13 9 147 -148 0
7 -13 9 -147 149 0
7 -13 9 -147 -149 0
3 -16 15 150 151 0
3 -16 15 150 -151 0
3 -16 15 -150 152 0
3 -16 15 -150 -152 0
3 20 -18 153 154 0
3 20 -18 153 -154 0
3 20 -18 -153 155 0
3 20 -18 -153 -155 0
-4 -18 7 156 157 0
-4 -18 7 156 -157 0
-4 -18 7 -156 158 0
-4 -18 7 -156 -158 0
-13 8 -10 159 160 0
-13 8 -10 159 -160 0
-13 8 -10 -159 161 0
-13 8 -10 -159 -161 0
-11 12 -5 162 163 0
-11 12 -5 162 -163 0
-11 12 -5 -162 164 0
-11 12 -5 -162 -164 0
-14 -3 6 165 166 0
-14 -3 6 165 -166 0
-14 -3 6 -165 167 0
-14 -3 6 -165 -167 0
-19 14 -9 168 169 0
-19 14 -9 168 -169 0
-19 14 -9 -168 170 0
-19 14 -9 -168 -170 0
-13 6 11 171 172 0
-13 6 11 171 -172 0
-13 6 11 -171 173 0
-13 6 11 -171 -173 0
-10 16 -20 174 175 0
-10 16 -20 174 -175 0
-10 16 -20 -174 176 0
-10 16 -20 -174 -176 0
-5 -12 -1 177 178 0
-5 -12 -1 177 -178 0
-5 -12 -1 -177 179 0
-5 -12 -1 -177 -179 0
9 -2 17 180 181 0
9 -2 17 180 -181 0
9 -2 17 -180 182 0
9 -2 17 -180 -182 0
-4 -10 15 183 184 0
-4 -10 15 183 -184 0
-4 -10 15 -183 185 0
-4 -10 15 -183 -185 0
-13 18 19 186 187 0
-13 18 19 186 -187 0
-13 18 19 -186 188 0
-13 18 19 -186 -188 0
-2 17 -1 189 190 0
-2 17 -1 189 -190 0
-2 17 -1 -189 191 0
-2 17 -1 -189 -191 0
15 -14 17 192 193 0
15 -14 17 192 -193 0
15 -14 17 -192 194 0
15 -14 17 -192 -194 0
19 14 4 195 196 0
19 14 4 195 -196 0
19 14 4 -195 197 0
19 14 4 -195 -197 0
7 -19 -4 198 199 0
7 -19 -4 198 -199 0
7 -19 -4 -198 200 0
7 -19 -4 -198 -200 0
-19 8 -10 201 202 0
-19 8 -10 201 -202 0
-19 8 -10 -201 203 0
-19 8 -10 -201 -203 0
-12 -5 -18 204 205 0
-12 -5 -18 204 -205 0
-12 -5 -18 -204 206 0
-12 -5 -18 -204 -206 0
-9 13 -5 207 208 0
-9 13 -5 207 -208 0
-9 13 -5 -207 209 0
-9 13 -5 -207 -209 0
-17 20 16 210 211 0
-17 20 16 210 -211 0
-17 20 16 -210 212 0
-17 20 16 -210 -212 0
-6 -8 12 213 214 0
-6 -8 12 213 -214 0
-6 -8 12 -213 215 0
-6 -8 12 -213 -215 0
-5 8 -20 216 217 0
-5 8 -20 216 -217 0
-5 8 -20 -216 218 0
-5 8 -20 -216 -218 0
-18 -20 -5 219 220 0
-18 -20 -5 219 -220 0
-18 -20 -5 -219 221 0
-18 -20 -5 -219 -221 0
-2 -12 18 222 223 0
-2 -12 18 222 -223 0
-2 -12 18 -222 224 0
-2 -12 18 -222 -224 0
-16 17 5 225 226 0
-16 17 5 225 -226 0
-16 17 5 -225 227 0
-16 17 5 -225 -227 0
-1 13 -16 228 229 0
-1 13 -16 228 -229 0
-1 13 -16 -228 230 0
-1 13 -16 -228 -230 0
1 -15 8 231 232 0
1 -15 8 231 -232 0
1 -15 8 -231 233 0
1 -15 8 -231 -233 0
4 17 -19 234 235 0
4 17 -19 234 -235 0
4 17 -19 -234 236 0
4 17 -19 -234 -236 0
-15 -8 -19 237 238 0
-15 -8 -19 237 -238 0
-15 -8 -19 -237 239 0
-15 -8 -19 -237 -239 0
-9 2 15 240 241 0
-9 2 15 240 -241 0
-9 2 15 -240 242 0
-9 2 15 -240 -242 0
-7 1 -17 243 244 0
-7 1 -17 243 -244 0
-7 1 -17 -243 245 0
-7 1 -17 -243 -245 0
1 -2 20 246 247 0
1 -2 20 246 -247 0
1 -2 20 -246 248 0
1 -2 20 -246 -248 0
-9 11 3 249 250 0
-9 11 3 249 -250 0
-9 11 3 -249 251 0
-9 11 3 -249 -251 0
-6 8 -1 252 253 0
-6 8 -1 252 -253 0
-6 8 -1 -252 254 0
-6 8 -1 -252 -254 0
-7 -4 1 255 256 0
-7 -4 1 255 -256 0
-7 -4 1 -255 257 0
-7 -4 1 -255 -257 0
3 -13 -4 258 259 0
3 -13 -4 258 -259 0
3 -13 -4 -258 260 0
3 -13 -4 -258 -260 0
4 16 -15 261 262 0
4 16 -15 261 -262 0
4 16 -15 -261 263 0
4 16 -15 -261 -263 0
16 1 3 264 265 0
16 1 3 264 -265 0
16 1 3 -264 266 0
16 1 3 -264 -266 0
12 -8 -6 267 268 0
12 -8 -6 267 -268 0
12 -8 -6 -267 269 0
12 -8 -6 -267 -269 0
-16 -19 -4 270 271 0
-16 -19 -4 270 -271 0
-16 -19 -4 -270 272 0
-16 -19 -4 -270 -272 0
3 18 10 273 274 0
3 18 10 273 -274 0
3 18 10 -273 275 0
3 18 10 -273 -275 0
-2 -4 19 276 277 0
-2 -4 19 276 -277 0
-2 -4 19 -276 278 0
-2 -4 19 -276 -278 0
-16 -7 8 279 280 0
-16 -7 8 279 -280 0
-16 -7 8 -279 281 0
-16 -7 8 -279 -281 0
2 -5 16 282 283 0
2 -5 16 282 -283 0
2 -5 16 -282 284 0
2 -5 16 -282 -284 0
7 9 11 285 286 0
7 9 11 285 -286 0
7 9 11 -285 287 0
7 9 11 -285 -287 0
-8 -20 -16 288 289 0
-8 -20 -16 288 -289 0
-8 -20 -16 -288 290 0
-8 -20 -16 -288 -290 0
-15 -3 17 291 292 0
-15 -3 17 291 -292 0
-15 -3 17 -291 293 0
-15 -3 17 -291 -293 0
294 295 297 301 309 0
294 295 297 301 -309 0
294 295 297 -301 310 0
294 295 297 -301 -310 0
294 295 -297 302 311 0
294 295 -297 302 -311 0
294 295 -297 -302 312 0
294 295 -297 -302 -312 0
294 -295 298 303 313 0
294 -295 298 303 -313 0
294 -295 298 -303 314 0
294 -295 298 -303 -314 0
294 -295 -298 304 315 0
294 -295 -298 304 -315 0
294 -295 -298 -304 316 0
294 -295 -298 -304 -316 0
-294 296 299 305 317 0
-294 296 299 305 -317 0
-294 296 299 -305 318 0
-294 296 299 -305 -318 0
-294 296 -299 306 319 0
-294 296 -299 306 -319 0
-294 296 -299 -306 320 0
-294 296 -299 -306 -320 0
-294 -296 300 307 321 0
-294 -296 300 307 -321 0
-294 -296 300 -307 322 0
-294 -296 300 -307 -322 0
-294 -296 -300 308 323 0
-294 -296 -300 308 -323 0
-294 -296 -300 -308 324 0
-294 -296 -300 -308 -324 0
325 326 328 332 340 0
325 326 328 332 -340 0
325 326 328 -332 341 0
325 326 328 -332 -341 0
325 326 -328 333 342 0
325 326 -328 333 -342 0
325 326 -328 -333 343 0
325 326 -328 -333 -343 0
325 -326 329 334 344 0
325 -326 329 334 -344 0
325 -326 329 -334 345 0
325 -326 329 -334 -345 0
325 -326 -329 335 346 0
325 -326 -329 335 -346 0
325 -326 -329 -335 347 0
325 -326 -329 -335 -347 0
-325 327 330 336 348 0
-325 327 330 336 -348 0
-325 327 330 -336 349 0
-325 327 330 -336 -349 0
-325 327 -330 337 350 0
-325 327 -330 337 -350 0
-325 327 -330 -337 351 0
-325 327 -330 -337 -351 0
-325 -327 331 338 352 0
-325 -327 331 338 -352 0
-325 -327 331 -338 353 0
-325 -327 331 -338 -353 0
-325 -327 -331 339 354 0
-325 -327 -331 339 -354 0
-325 -327 -331 -339 355 0
-325 -327 -331 -339 -355 0
356 357 359 363 371 0
356 357 359 363 -371 0
356 357 359 -363 372 0
356 357 359 -363 -372 0
356 357 -359 364 373 0
356 357 -359 364 -373 0
356 357 -359 -364 374 0
356 357 -359 -364 -374 0
356 -357 360 365 375 0
356 -357 360 365 -375 0
356 -357 360 -365 376 0
356 -357 360 -365 -376 0
356 -357 -360 366 377 0
356 -357 -360 366 -377 0
356 -357 -360 -366 378 0
356 -357 -360 -366 -378 0
-356 358 361 367 379 0
-356 358 361 367 -379 0
-356 358 361 -367 380 0
-356 358 361 -367 -380 0
-356 358 -361 368 381 0
-356 358 -361 368 -381 0
-356 358 -361 -368 382 0
-356 358 -361 -368 -382 0
-356 -358 362 369 383 0
-356 -358 362 369 -383 0
-356 -358 362 -369 384 0
-356 -358 362 -369 -384 0
-356 -358 -362 370 385 0
-356 -358 -362 370 -385 0
-356 -358 -362 -370 386 0
-356 -358 -362 -370 -386 0

